p tw 29 39
1 2
2 3
2 6
3 4
4 5
4 7
5 8
6 10
7 8
7 12
8 9
8 13
9 14
10 11
11 12
11 16
12 13
12 17
13 14
13 18
14 19
15 20
16 17
16 22
17 18
17 23
18 19
19 24
20 21
20 25
21 22
21 26
22 23
22 27
23 28
24 29
25 26
26 27
27 28
